32	0

0	3	2	3	4
9	1	5
9	1	5
7	1	5
8	2	6	8
6	1	7
4	2	9	10
7	2	9	10
1	2	11	12
1	2	11	12
7	2	14	18
1	2	13	15
6	2	14	18
5	1	16
10	2	16	18
5	2	17	19
9	2	20	21
8	1	19
7	2	20	21
8	3	22	24	25
5	2	22	23
6	2	28	29
4	2	24	25
2	1	26
2	1	26
1	1	27
1	2	28	29
9	1	32
4	1	30
2	1	31
1	1	32
0	0
